0	11
0	12
0	13
0	36
0	37
0	52
0	53
0	54
0	68
0	69
1	25
1	87
1	96
1	104
2	3
4	5
4	6
5	6
5	26
5	27
5	41
5	76
5	77
5	78
5	91
5	92
5	93
5	102
5	109
5	114
5	122
5	1422
5	1456
5	1521
5	1522
5	1602
5	1985
6	26
6	27
6	41
6	76
6	77
6	78
6	91
6	92
6	93
6	102
6	109
6	114
6	122
7	8
9	10
11	12
11	13
12	13
14	15
16	17
16	18
17	18
17	36
17	40
17	61
17	87
17	101
17	116
17	117
17	118
17	119
17	120
19	20
19	21
19	34
19	35
19	38
19	95
19	113
19	123
20	21
20	35
20	84
20	113
20	123
20	387
20	388
20	600
20	601
20	603
20	621
20	622
20	628
20	629
20	630
20	668
20	702
20	730
20	746
20	747
20	750
20	1459
20	1702
20	1926
20	1980
21	668
21	1702
22	23
22	24
23	24
24	94
24	121
25	63
25	100
25	104
25	124
26	27
27	76
27	77
27	78
28	29
28	30
28	31
28	32
28	33
29	30
29	31
29	32
29	33
30	31
30	32
30	33
31	32
31	33
32	33
34	35
35	38
35	702
35	1561
35	1926
36	37
36	40
36	97
36	98
37	54
39	105
42	43
42	57
43	57
44	45
44	108
45	108
45	341
45	1476
46	47
46	48
46	82
47	48
47	603
47	752
47	797
47	1451
47	1467
47	1645
47	1646
47	1676
47	1805
47	1836
47	1837
47	1871
47	1872
49	50
49	51
50	51
50	1366
50	1367
50	1368
50	1371
50	1436
50	1437
50	1472
50	1473
50	1688
50	1784
51	52
51	1334
51	1335
51	1371
51	1436
51	1437
51	1472
51	1473
51	1488
51	1606
51	1622
51	1715
51	1716
51	1785
51	1802
51	1803
51	1825
51	1988
51	2043
52	53
52	458
52	459
52	460
52	566
52	571
52	572
52	589
52	1371
52	1437
52	1488
52	1555
52	1556
52	1750
54	62
54	80
54	81
55	56
55	99
58	59
58	60
58	264
58	265
58	266
58	304
58	329
58	361
58	368
58	627
58	673
58	678
58	685
58	687
58	688
58	779
58	804
58	1351
58	1363
58	1368
58	1371
58	1396
58	1411
58	1412
58	1536
58	1559
58	1560
58	1561
58	1565
58	1630
58	1642
58	1651
58	1713
58	1793
58	1831
58	1840
58	1877
58	1896
58	1906
58	1907
58	1945
59	60
59	266
59	607
59	646
59	706
59	722
59	723
59	724
59	763
59	804
59	1559
60	79
60	85
63	64
63	65
63	100
63	1513
63	1602
63	1703
64	65
66	67
67	689
67	1338
67	1344
67	1384
67	1429
67	1449
67	1493
67	1515
67	1516
67	1599
67	1629
67	1883
67	2039
68	69
70	71
72	73
72	1410
72	1614
72	1811
72	1991
74	75
75	103
75	115
76	77
76	78
77	78
80	81
83	84
83	324
83	1864
83	2053
84	90
84	668
84	1643
84	1864
84	2053
87	96
87	101
88	89
90	275
90	1348
90	1352
90	1384
90	1399
90	1498
90	1509
90	1547
90	1548
90	1556
90	1589
90	1614
90	1623
90	1673
90	1674
90	1749
90	1913
90	1928
90	1987
91	92
91	93
91	102
92	93
92	102
93	102
97	98
103	115
103	436
103	441
103	500
103	501
103	502
103	503
103	541
103	542
106	107
109	730
109	1792
110	111
110	112
111	112
116	117
116	118
116	119
116	120
117	118
117	119
117	120
118	119
118	120
119	120
123	1396
123	1420
123	1421
123	1865
123	1924
125	126
125	222
125	223
126	222
126	223
129	130
132	133
134	135
134	136
134	137
135	136
135	137
136	137
136	197
138	139
138	140
139	140
140	362
140	363
141	142
141	143
142	143
145	146
147	200
147	235
147	236
147	237
147	238
147	239
147	240
147	241
147	242
147	243
147	244
147	245
147	246
147	247
147	248
148	149
148	184
148	207
148	249
148	250
149	184
149	201
149	202
149	207
149	249
149	250
150	151
150	152
151	152
153	154
153	155
154	155
154	173
154	205
156	157
158	159
160	161
160	162
160	1346
160	1365
160	1390
160	1457
160	1458
160	1552
160	1554
160	1664
160	1756
160	1857
161	162
161	194
162	194
162	368
162	455
162	559
162	1457
162	1458
162	1468
162	1469
162	1552
162	1642
162	1756
162	1857
163	164
163	165
163	166
163	167
163	168
163	169
164	165
164	166
164	167
164	168
164	169
164	181
164	186
164	187
164	188
164	189
164	190
164	191
164	192
164	209
164	210
164	211
164	214
164	215
165	166
165	167
165	168
165	169
165	181
166	167
166	168
166	169
167	168
167	169
168	169
170	171
170	172
170	224
170	225
171	172
172	224
172	225
174	175
174	176
174	593
174	594
175	176
177	183
177	220
177	221
178	179
178	180
179	180
179	253
179	254
179	255
179	256
182	183
183	193
183	220
183	221
183	233
183	234
185	226
185	227
185	252
186	187
186	188
186	189
186	190
186	191
186	192
186	209
186	210
186	211
187	188
187	189
187	190
187	191
187	192
188	189
188	190
188	191
188	192
189	190
189	191
189	192
189	209
189	210
189	211
189	214
189	215
190	191
190	192
191	192
194	1364
194	1375
195	196
198	199
201	202
203	206
207	208
209	210
209	211
210	211
213	638
213	818
214	215
216	217
216	218
216	219
217	218
217	219
218	219
219	759
219	761
220	221
222	223
224	225
226	227
228	229
230	231
230	232
232	845
233	234
235	236
235	237
235	238
235	239
235	240
235	241
235	242
235	243
235	244
235	245
235	246
235	247
235	248
236	237
236	238
236	239
236	240
236	241
236	242
236	243
236	244
236	245
236	246
236	247
236	248
237	238
237	239
237	240
237	241
237	242
237	243
237	244
237	245
237	246
237	247
237	248
237	616
238	239
238	240
238	241
238	242
238	243
238	244
238	245
238	246
238	247
238	248
239	240
239	241
239	242
239	243
239	244
239	245
239	246
239	247
239	248
240	241
240	242
240	243
240	244
240	245
240	246
240	247
240	248
241	242
241	243
241	244
241	245
241	246
241	247
241	248
241	638
241	757
241	762
242	243
242	244
242	245
242	246
242	247
242	248
243	244
243	245
243	246
243	247
243	248
244	245
244	246
244	247
244	248
245	246
245	247
245	248
246	247
246	248
247	248
249	250
253	254
253	255
253	256
254	255
254	256
255	256
257	258
260	324
260	379
260	416
261	262
261	263
261	314
261	320
261	355
261	359
261	360
262	263
262	314
262	320
262	325
262	355
262	359
262	360
262	420
263	320
264	265
264	266
264	267
264	268
264	269
264	358
264	627
265	266
265	267
265	268
265	269
265	358
265	627
266	267
266	268
266	269
266	290
266	328
266	804
267	268
267	269
267	290
267	303
267	304
267	328
268	269
268	286
268	287
268	288
268	289
268	290
268	291
269	290
269	328
270	271
272	273
272	325
272	341
272	342
272	345
272	346
272	1383
273	341
273	342
273	345
273	346
273	1383
274	275
274	305
274	317
274	397
274	398
275	305
275	317
275	397
275	398
275	521
275	704
275	721
275	1333
275	1348
275	1352
275	1362
275	1370
275	1400
275	1411
275	1446
275	1450
275	1459
275	1460
275	1461
275	1462
275	1463
275	1481
275	1483
275	1509
275	1539
275	1565
275	1585
275	1597
275	1614
275	1623
275	1624
275	1657
275	1658
275	1676
275	1690
275	1711
275	1717
275	1728
275	1773
275	1938
275	1939
275	1987
276	277
276	278
276	372
276	373
276	374
276	375
277	278
279	280
279	281
280	281
281	329
281	330
281	340
281	368
281	369
282	283
284	285
284	301
284	302
284	424
285	301
285	302
285	357
285	424
285	1360
285	1824
286	287
286	288
286	289
286	290
286	291
287	288
287	289
287	290
287	291
288	289
288	290
288	291
289	290
289	291
290	291
290	328
292	293
292	294
292	295
292	1001
292	1168
292	1169
292	1170
293	294
293	295
294	295
296	297
296	298
296	299
296	380
297	298
297	299
298	299
298	380
301	302
303	304
304	717
304	1333
304	1362
304	1363
304	1368
304	1380
304	1396
304	1431
304	1433
304	1465
304	1481
304	1593
304	1651
304	1725
304	1748
304	1829
304	1831
304	1853
304	1869
304	1870
304	1901
304	1902
304	1906
304	1907
304	1911
304	2027
306	307
308	309
308	385
308	386
309	399
309	400
309	421
310	311
310	312
310	313
310	323
311	312
311	313
312	313
313	323
315	316
315	354
315	356
318	319
318	347
318	348
319	347
319	348
321	322
321	339
321	403
321	404
322	339
322	403
322	404
325	420
326	327
326	389
329	330
329	368
329	1355
329	1369
329	1439
329	1642
329	1714
331	332
331	333
332	333
334	335
334	336
335	336
336	554
337	338
339	403
339	404
341	342
341	345
341	346
341	1333
341	1383
341	1475
341	1476
341	1542
341	1651
341	1732
342	345
342	346
345	346
347	348
349	350
351	352
351	353
352	353
359	360
362	363
362	545
362	546
362	567
362	568
364	365
364	366
364	367
365	366
365	367
366	367
368	369
368	614
368	615
368	673
368	687
368	689
368	690
368	779
368	1336
368	1337
368	1355
368	1369
368	1415
368	1416
368	1418
368	1419
368	1439
368	1440
368	1468
368	1502
368	1503
368	1552
368	1604
368	1642
368	1649
368	1707
368	1714
368	1830
368	1964
369	673
369	1333
369	1363
369	1539
369	1552
369	1690
370	371
372	373
372	374
372	375
373	374
373	375
374	375
376	377
377	660
377	661
377	662
381	382
383	384
385	386
387	388
390	391
392	393
392	394
393	394
395	396
397	398
397	1728
397	1773
399	400
401	402
403	404
405	406
407	408
409	410
409	411
410	411
412	413
412	414
412	415
412	1735
412	1817
413	414
413	415
414	415
417	418
417	419
418	419
422	423
425	426
425	833
425	916
425	962
425	980
427	428
427	429
427	430
428	429
428	430
429	430
432	449
434	435
434	441
434	442
434	453
434	471
434	473
434	474
434	510
434	511
434	597
435	448
435	524
436	441
436	500
436	501
436	502
436	503
436	586
437	438
437	439
437	440
438	439
438	440
439	440
441	442
441	453
441	472
441	496
441	497
441	498
441	499
441	500
441	501
441	502
441	503
441	504
441	505
441	512
441	561
441	563
442	461
442	463
442	474
442	497
442	547
442	548
442	549
442	550
442	551
442	552
442	563
443	444
443	449
443	493
443	495
443	520
444	449
444	493
444	495
444	497
444	506
444	520
445	446
445	447
446	447
448	449
448	453
448	524
448	551
448	555
448	556
449	495
449	524
450	451
450	452
450	464
450	478
450	523
450	536
450	569
450	570
451	452
451	464
451	478
451	523
451	536
451	569
451	570
452	464
452	476
452	477
452	478
452	479
452	523
452	536
452	569
452	570
453	457
453	551
453	555
453	556
454	455
454	456
455	456
455	559
458	459
458	460
458	589
459	460
459	571
459	572
459	589
461	462
461	463
461	474
461	547
461	548
461	549
461	550
461	551
461	552
462	463
463	474
463	547
463	548
463	549
463	550
463	551
463	552
464	1396
464	1411
464	1465
464	1511
464	1564
464	1565
465	466
465	562
466	562
467	514
467	515
467	516
468	469
468	470
468	521
468	522
468	585
469	470
469	521
469	522
469	585
469	1572
469	1573
471	883
472	480
472	496
472	497
472	498
472	499
472	506
472	508
472	525
472	526
472	527
472	528
472	529
472	530
472	531
472	532
472	533
472	534
472	587
472	588
473	474
474	547
474	548
474	549
474	550
474	551
474	552
474	558
475	476
475	477
476	477
476	478
476	479
477	478
477	479
478	479
478	523
480	496
480	498
481	482
481	573
481	574
482	573
482	574
483	484
483	485
484	485
485	513
485	553
486	487
486	488
487	488
487	560
488	560
489	490
489	491
489	492
489	537
489	538
490	537
490	538
491	492
496	497
496	498
496	499
497	498
497	499
497	504
497	505
497	506
497	529
497	530
497	531
497	532
497	533
497	534
497	563
498	499
500	501
500	502
500	503
501	502
501	503
501	586
502	503
504	505
507	508
507	509
507	517
507	518
507	519
507	564
507	565
508	509
508	525
508	526
508	527
508	528
509	517
509	519
509	564
509	565
510	511
514	515
514	516
515	516
517	518
517	519
517	564
517	565
518	519
520	575
521	522
521	1389
521	1462
523	536
525	526
525	527
525	528
526	527
526	528
526	1655
527	528
528	1462
528	1790
528	1851
529	530
529	531
529	532
529	533
529	534
529	587
529	588
530	531
530	532
530	533
530	534
531	532
531	533
531	534
532	533
532	534
533	534
537	538
539	540
541	542
543	544
545	546
545	567
545	568
546	567
546	568
547	548
547	549
547	550
547	551
547	552
548	549
548	550
548	551
548	552
549	550
549	551
549	552
550	551
550	552
551	552
551	555
551	556
555	556
559	1394
559	1418
559	1468
564	565
567	568
569	570
571	572
573	574
576	577
578	579
580	581
580	582
581	582
581	1189
585	1454
585	1455
585	1633
585	1665
585	1712
585	1759
585	1997
585	1998
585	2038
585	2054
585	2055
587	588
590	591
590	592
591	592
593	594
595	596
598	599
598	769
598	925
600	601
600	603
600	621
600	622
600	630
600	663
600	668
600	730
600	750
600	1459
601	1441
602	603
603	604
603	623
603	624
603	625
603	626
603	640
603	648
603	649
603	652
603	656
603	671
603	681
603	682
603	689
603	690
603	691
603	692
603	693
603	698
603	703
603	710
603	712
603	713
603	714
603	715
603	716
603	731
603	732
603	742
603	782
603	795
603	797
603	810
603	1387
603	1451
603	1499
603	1728
603	1908
604	623
604	624
604	625
604	626
604	640
604	648
604	692
604	693
604	712
604	713
604	714
604	715
604	716
604	782
605	606
607	611
607	646
607	647
607	666
607	667
607	699
607	700
607	701
607	706
607	709
607	763
607	764
607	777
607	778
607	807
608	609
608	610
609	610
609	1821
609	1822
611	646
611	709
612	613
612	614
612	615
612	620
613	614
613	615
613	620
613	790
614	615
614	620
614	665
614	1336
614	1337
614	1487
614	1517
614	1518
614	1519
614	1681
614	1892
614	1932
615	620
615	1336
615	1337
617	618
621	622
621	730
623	624
623	625
623	626
623	648
623	712
623	713
623	714
623	715
623	716
623	731
623	732
623	737
623	738
623	1397
623	1398
623	1769
624	625
624	626
624	648
624	649
624	712
624	713
624	714
624	715
624	716
625	626
625	648
625	712
625	713
625	714
625	715
625	716
625	719
625	799
625	810
626	648
626	671
626	712
626	713
626	714
626	715
626	716
627	678
627	1396
628	629
628	664
628	665
628	702
631	632
631	637
631	739
631	740
631	741
631	796
632	739
632	740
632	741
633	634
633	635
634	635
634	797
634	798
636	637
636	638
636	717
636	718
637	638
637	650
637	796
638	757
638	762
638	801
638	818
639	640
640	651
640	692
640	693
641	642
641	643
642	643
643	708
644	645
646	647
646	667
646	685
646	686
646	706
646	709
646	764
646	777
647	667
647	764
648	712
648	713
648	714
648	715
648	716
652	653
652	710
652	770
652	786
654	655
654	656
655	656
655	683
655	2080
655	2081
656	681
656	683
656	806
657	658
657	659
657	784
658	659
660	661
660	662
661	662
661	765
661	766
662	765
662	766
664	665
665	1336
665	1337
665	1487
665	1932
666	667
666	748
666	749
667	764
667	777
668	750
668	1702
669	670
673	674
673	687
673	1350
673	1371
673	1379
673	1396
673	1411
673	1414
673	1415
673	1416
673	1417
673	1418
673	1437
673	1439
673	1450
673	1463
673	1485
673	1486
673	1492
673	1544
673	1545
673	1563
673	1605
673	1624
673	1669
673	1730
673	1733
673	1772
673	1840
673	1877
673	1880
673	1884
673	2045
674	803
675	676
675	677
676	677
678	1417
678	1579
679	680
679	711
680	1348
680	1470
680	1512
680	1513
680	1524
680	1525
680	1744
681	682
685	686
685	688
685	760
686	1425
687	689
687	723
687	779
687	785
687	1344
687	1448
687	1502
687	1515
687	1516
687	1519
687	1560
687	1604
687	1707
687	1727
687	1730
687	1739
687	1830
687	1925
687	1955
687	2073
687	2074
689	690
689	691
689	1344
689	1387
689	1649
689	1908
689	1964
690	691
690	786
690	1387
690	1468
690	1648
690	1649
690	1737
690	1787
690	1863
690	1908
692	693
692	720
692	721
692	742
693	742
694	695
696	697
699	700
699	701
700	701
704	705
704	1351
704	1377
704	1378
704	1379
704	1623
708	2007
709	1332
709	1453
709	1609
709	1849
712	713
712	714
712	715
712	716
713	714
713	715
713	716
714	715
714	716
715	716
717	718
717	1363
717	1375
717	1380
717	1433
717	1441
717	1760
717	1761
717	1762
717	1853
717	2027
719	799
720	721
721	1450
721	1565
721	1676
722	723
722	724
723	724
723	1338
723	1339
723	1372
723	1373
723	1447
723	1796
723	1925
725	802
726	727
726	728
727	728
730	1792
730	2006
730	2030
731	732
733	734
733	735
733	736
734	735
734	736
735	736
736	969
737	738
738	1557
738	1758
739	740
739	741
740	741
743	771
743	772
744	745
744	787
744	839
746	747
748	749
751	752
752	1341
752	1342
752	1451
752	1736
752	1871
752	1872
752	2064
753	754
756	757
757	762
759	761
764	777
765	766
766	1598
767	768
771	772
774	775
774	776
775	776
779	1412
779	1896
780	781
783	805
788	789
788	791
792	793
792	794
793	794
797	798
797	1451
797	1466
797	1467
797	1499
797	1646
797	1668
797	1676
797	1908
797	1969
797	1970
804	1375
804	1380
804	1394
804	1441
804	1726
804	1891
804	1995
804	1996
807	820
807	821
808	809
813	814
813	815
813	926
814	815
815	926
816	817
816	836
816	903
817	833
817	834
817	835
817	836
817	873
817	874
817	875
817	898
817	903
817	936
818	819
818	825
818	852
818	857
818	858
818	945
818	964
820	821
821	981
822	823
822	824
823	824
826	861
827	828
827	829
827	830
827	894
827	895
827	961
827	982
827	983
827	984
828	829
828	830
829	830
830	894
830	895
830	931
830	932
831	832
833	834
833	835
833	836
833	887
833	903
833	962
833	980
834	835
834	836
835	836
835	887
835	903
836	902
836	903
837	838
839	840
841	842
841	843
842	843
844	953
844	955
845	910
846	847
846	848
847	848
847	877
847	878
849	850
849	851
849	852
850	851
850	852
851	852
852	857
852	858
853	854
853	855
853	856
854	855
854	856
855	856
857	858
860	861
860	862
861	862
861	879
861	883
862	879
862	966
862	967
862	968
863	864
863	865
864	865
866	867
866	930
867	909
868	869
868	870
869	870
871	872
871	961
871	962
871	963
873	874
873	875
873	936
874	875
877	878
881	917
881	938
881	939
881	957
881	975
882	965
884	885
886	887
886	890
887	890
888	889
889	911
889	946
891	907
891	943
892	893
894	895
896	897
897	949
897	950
897	977
897	978
897	979
900	901
901	941
901	942
902	903
904	905
904	906
904	907
905	906
905	907
906	907
907	909
908	909
911	946
913	914
913	915
914	915
914	958
917	918
917	938
917	957
919	920
922	923
922	937
927	928
927	929
928	929
928	956
929	956
931	932
933	934
933	935
934	935
938	939
938	957
938	975
941	942
947	948
949	950
951	952
951	953
951	954
952	953
952	954
953	954
961	962
961	963
961	982
961	983
961	984
962	963
962	980
966	967
966	968
967	968
970	971
971	1208
972	973
977	978
977	979
978	979
982	983
982	984
983	984
985	986
985	987
986	987
988	989
990	1022
990	1053
991	992
992	1001
992	1011
992	1012
992	1033
992	1039
992	1060
992	1089
992	1090
992	1091
992	1105
992	1121
992	1150
992	1154
993	1019
994	995
994	996
995	996
997	998
1000	1001
1000	1002
1000	1033
1000	1061
1000	1103
1000	1166
1001	1002
1001	1033
1001	1060
1001	1061
1001	1068
1001	1084
1001	1103
1001	1121
1001	1149
1001	1166
1001	1168
1001	1169
1001	1170
1002	1068
1003	1004
1005	1006
1006	1097
1006	1152
1006	1167
1007	1008
1007	1009
1008	1009
1011	1012
1013	1014
1016	1067
1016	1127
1017	1018
1018	1096
1020	1021
1020	1128
1020	1174
1020	1175
1021	1128
1023	1024
1023	1025
1024	1025
1026	1027
1028	1029
1028	1030
1029	1030
1030	1034
1030	1062
1030	1145
1030	1151
1031	1032
1031	1171
1032	1171
1033	1121
1035	1036
1035	1116
1035	1118
1035	1172
1037	1038
1039	1154
1040	1041
1040	1042
1040	1043
1040	1156
1041	1042
1041	1043
1041	1156
1042	1043
1043	1156
1044	1045
1046	1047
1047	1173
1048	1049
1048	1050
1049	1050
1051	1052
1052	1100
1054	1055
1054	1056
1055	1056
1055	1104
1058	1059
1058	1060
1058	1089
1058	1092
1058	1093
1059	1060
1060	1084
1060	1089
1060	1092
1060	1093
1060	1105
1060	1149
1063	1064
1063	1065
1064	1065
1069	1070
1071	1072
1073	1074
1073	1075
1073	1076
1074	1075
1074	1076
1075	1076
1075	1165
1077	1078
1077	1079
1078	1079
1081	1082
1083	1163
1083	1164
1086	1087
1086	1088
1087	1088
1088	1101
1088	1144
1089	1092
1089	1093
1089	1105
1090	1091
1092	1093
1094	1095
1097	1167
1098	1099
1099	1129
1099	1130
1106	1107
1108	1109
1108	1110
1108	1111
1109	1110
1109	1111
1110	1111
1112	1113
1112	1114
1112	1115
1113	1114
1113	1115
1114	1115
1117	1118
1118	1172
1119	1120
1122	1123
1122	1124
1123	1124
1125	1126
1129	1130
1131	1132
1133	1134
1133	1147
1133	1148
1133	1158
1134	1158
1135	1136
1137	1138
1137	1139
1138	1139
1140	1141
1141	1146
1142	1143
1147	1148
1159	1160
1159	1161
1159	1162
1160	1161
1160	1162
1161	1162
1163	1164
1168	1169
1168	1170
1169	1170
1174	1175
1176	1223
1177	1178
1180	1181
1182	1183
1184	1185
1184	1186
1184	1267
1185	1186
1187	1188
1187	1268
1188	1255
1188	1268
1188	1304
1188	1323
1190	1191
1191	1208
1191	1209
1191	1210
1191	1254
1194	1195
1196	1197
1199	1227
1199	1228
1199	1329
1202	1203
1205	1206
1205	1207
1206	1207
1207	1232
1207	1233
1208	1209
1208	1210
1209	1210
1211	1212
1213	1214
1213	1215
1213	1216
1214	1215
1214	1216
1215	1216
1217	1218
1217	1219
1218	1219
1218	1279
1218	1280
1218	1311
1221	1222
1222	1242
1222	1256
1227	1228
1229	1230
1230	1245
1230	1246
1232	1233
1234	1235
1238	1239
1238	1240
1239	1240
1243	1244
1243	1257
1245	1246
1248	1249
1248	1307
1250	1251
1255	1323
1258	1259
1259	1293
1260	1261
1262	1263
1263	1324
1264	1265
1269	1270
1269	1271
1269	1272
1269	1273
1269	1274
1269	1275
1270	1271
1270	1272
1270	1273
1270	1274
1270	1275
1271	1272
1271	1273
1271	1274
1271	1275
1272	1273
1272	1274
1272	1275
1273	1274
1273	1275
1274	1275
1276	1277
1278	1298
1278	1299
1279	1280
1281	1282
1283	1284
1286	1287
1286	1288
1286	1289
1286	1290
1286	1291
1286	1292
1287	1288
1287	1289
1287	1290
1287	1291
1287	1292
1288	1289
1288	1290
1288	1291
1288	1292
1289	1290
1289	1291
1289	1292
1290	1291
1290	1292
1290	1331
1291	1292
1295	1296
1298	1299
1299	2124
1302	1303
1305	1306
1308	1309
1312	1313
1312	1314
1313	1314
1316	1317
1316	1318
1316	1319
1316	1320
1317	1318
1317	1319
1317	1320
1318	1319
1318	1320
1319	1320
1321	1322
1325	1326
1327	1328
1328	1330
1332	1453
1332	1609
1332	1849
1333	1364
1333	1383
1333	1459
1333	1460
1333	1461
1333	1462
1333	1463
1333	1489
1333	1490
1333	1539
1333	1540
1333	1651
1333	1687
1333	1690
1333	1711
1333	1717
1333	1833
1333	1839
1333	1938
1333	1939
1334	1335
1335	1426
1335	1532
1335	1785
1335	1793
1335	1931
1336	1337
1338	1339
1338	1340
1338	1344
1338	1406
1338	1407
1338	1408
1338	1514
1338	1629
1338	1823
1338	1859
1339	1340
1339	1406
1339	1407
1339	1408
1339	1464
1339	1738
1339	1809
1341	1342
1341	1736
1343	1411
1343	1478
1343	1508
1343	1583
1343	1644
1343	1671
1343	1692
1343	1845
1343	1846
1343	2017
1343	2024
1344	1345
1344	1346
1344	1384
1344	1449
1344	1608
1344	1629
1344	1854
1344	1855
1345	1346
1346	1370
1346	1390
1346	1419
1346	1797
1346	1850
1347	1348
1347	1349
1347	1881
1348	1349
1348	1352
1348	1371
1348	1470
1348	1509
1348	1614
1348	1615
1348	1639
1348	1881
1348	1987
1348	2018
1350	1351
1350	1384
1350	1385
1350	1411
1350	1412
1350	1611
1350	1669
1350	1865
1350	1867
1351	1560
1351	1561
1351	1713
1352	1353
1352	1492
1352	1509
1352	1520
1352	1553
1352	1614
1352	1844
1352	1934
1352	1963
1352	1987
1352	2022
1352	2023
1353	1963
1354	1355
1354	1510
1355	1417
1355	1439
1355	1525
1355	1579
1355	1638
1355	1642
1355	1984
1355	2005
1356	1357
1356	1358
1356	1979
1356	2016
1357	1358
1357	1979
1357	1981
1359	1360
1359	1361
1359	1370
1360	1361
1360	1370
1360	1371
1360	1376
1360	1380
1360	1403
1360	1468
1360	1492
1360	1554
1360	1577
1360	1623
1360	1685
1360	1689
1360	1764
1360	1765
1360	1766
1360	1767
1360	1824
1360	1853
1360	1898
1362	1651
1362	1725
1363	1364
1363	1365
1363	1368
1363	1380
1363	1394
1363	1395
1363	1411
1363	1418
1363	1433
1363	1465
1363	1468
1363	1481
1363	1557
1363	1558
1363	1566
1363	1567
1363	1568
1363	1569
1363	1570
1363	1591
1363	1593
1363	1610
1363	1634
1363	1635
1363	1651
1363	1740
1363	1741
1363	1748
1363	1755
1363	1829
1363	1853
1363	1869
1363	1901
1363	1902
1363	1945
1363	1959
1363	1960
1363	1961
1363	1962
1363	2027
1364	1365
1364	1368
1364	1375
1364	1394
1364	1395
1364	1396
1364	1418
1364	1468
1364	1557
1364	1558
1364	1699
1364	1700
1364	1724
1364	1814
1364	1820
1364	1833
1364	1986
1365	1390
1365	1557
1366	1367
1366	1368
1366	1472
1366	1473
1367	1368
1367	1472
1367	1473
1368	1433
1368	1472
1368	1473
1368	1484
1368	1571
1368	1591
1368	1610
1368	1634
1368	1635
1368	1740
1368	1741
1368	1748
1368	1754
1368	1814
1368	1869
1368	1903
1368	1904
1368	1945
1370	1390
1370	1597
1370	1773
1371	1411
1371	1436
1371	1437
1371	1446
1371	1472
1371	1473
1371	1488
1371	1582
1371	1583
1371	1584
1371	1606
1371	1615
1371	1622
1371	1639
1371	1640
1371	1641
1371	1680
1371	1709
1371	1715
1371	1716
1371	1742
1371	1743
1371	1778
1371	1838
1371	1840
1371	1847
1371	1877
1371	1879
1371	1885
1371	1898
1371	2036
1371	2043
1372	1373
1373	1650
1374	1375
1374	1376
1374	1441
1374	1630
1375	1376
1375	1380
1375	1394
1375	1417
1375	1418
1375	1434
1375	1435
1375	1441
1375	1468
1375	1560
1375	1630
1375	1719
1375	1724
1375	1760
1375	1761
1375	1762
1375	1763
1375	1891
1375	1918
1375	1995
1375	1996
1375	2011
1375	2037
1376	1380
1376	1394
1376	1395
1376	1431
1376	1563
1376	1579
1376	1704
1376	1718
1376	1757
1376	1853
1376	2002
1377	1378
1377	1379
1378	1379
1379	1416
1379	1437
1379	1526
1379	1624
1380	1396
1380	1403
1380	1431
1380	1432
1380	1433
1380	1441
1380	1465
1380	1536
1380	1554
1380	1563
1380	1579
1380	1580
1380	1685
1380	1704
1380	1718
1380	1853
1380	1870
1380	1878
1380	1891
1380	1909
1380	1911
1380	1916
1380	1995
1380	1996
1380	2002
1380	2011
1380	2012
1380	2027
1380	2065
1381	1382
1382	1401
1382	1402
1382	1799
1382	1800
1382	1922
1382	1927
1384	1385
1384	1435
1384	1449
1384	1511
1384	1535
1384	1538
1384	1555
1384	1556
1384	1600
1384	1611
1384	1629
1384	1654
1384	1655
1384	1928
1384	1992
1386	1399
1386	1510
1386	1537
1386	1538
1386	1663
1386	1827
1386	1919
1386	2008
1386	2009
1388	1389
1388	1390
1389	1390
1389	1425
1389	1438
1389	1536
1389	1743
1389	1866
1389	1920
1389	2014
1390	1392
1390	1425
1390	1438
1390	1442
1390	1443
1390	1504
1390	1505
1390	1527
1390	1664
1390	1667
1390	1705
1390	1706
1390	1794
1390	1795
1390	2014
1390	2063
1391	1392
1392	1413
1392	1509
1392	1530
1392	1555
1392	1616
1392	1617
1392	1619
1392	2066
1393	1394
1393	1395
1394	1395
1394	1418
1394	1468
1394	1496
1394	1533
1394	1557
1394	1558
1394	1563
1394	1642
1394	1725
1394	1726
1394	1808
1394	1871
1394	1935
1395	1418
1395	1468
1395	1557
1395	1558
1396	1408
1396	1411
1396	1463
1396	1465
1396	1511
1396	1562
1396	1564
1396	1565
1396	1631
1396	1691
1396	1720
1396	1793
1396	1801
1396	1820
1396	1834
1396	1865
1396	1870
1396	1877
1396	1891
1396	1905
1396	1911
1396	1912
1396	1921
1396	1924
1396	2015
1396	2025
1396	2031
1396	2032
1396	2051
1396	2067
1397	1398
1397	1399
1397	1769
1398	1399
1398	1769
1398	1856
1398	1893
1398	1942
1398	1943
1399	1749
1399	1913
1399	2008
1399	2009
1401	1402
1404	1405
1404	1701
1405	1697
1405	1701
1406	1407
1406	1408
1407	1408
1407	1941
1408	1631
1408	1652
1408	1670
1408	1686
1408	1917
1408	2035
1409	1410
1410	1411
1410	1441
1410	1581
1410	1596
1410	1614
1410	1780
1410	1781
1410	1887
1410	1991
1411	1412
1411	1446
1411	1465
1411	1481
1411	1483
1411	1508
1411	1511
1411	1564
1411	1565
1411	1566
1411	1567
1411	1568
1411	1569
1411	1570
1411	1585
1411	1596
1411	1624
1411	1643
1411	1644
1411	1659
1411	1726
1411	1773
1411	1840
1411	1845
1411	1846
1411	1865
1411	1877
1411	2010
1411	2057
1412	1416
1412	1417
1412	1485
1412	1526
1412	1695
1412	1745
1412	1865
1412	1896
1412	1940
1412	1973
1413	1477
1413	1478
1413	1509
1413	1555
1413	1586
1414	1415
1414	1416
1414	1417
1414	1418
1414	1733
1414	1772
1415	1416
1415	1417
1415	1418
1415	1441
1416	1417
1416	1418
1416	1437
1416	1439
1416	1440
1416	1485
1416	1486
1416	1526
1416	1605
1416	1624
1416	1695
1416	1733
1416	1745
1416	1772
1416	1940
1416	1973
1417	1418
1417	1434
1417	1435
1417	1441
1417	1485
1417	1544
1417	1545
1417	1560
1417	1578
1417	1579
1417	1580
1417	1638
1417	1724
1417	1733
1417	1745
1417	1763
1417	1772
1418	1468
1418	1496
1418	1544
1418	1545
1418	1557
1418	1558
1418	1733
1418	1772
1419	1445
1419	1511
1419	1675
1420	1421
1422	1423
1422	1424
1422	1602
1422	1649
1422	2070
1423	1424
1425	1438
1425	1587
1425	1588
1425	1649
1425	1666
1426	1532
1426	1793
1426	1931
1427	1428
1427	1538
1427	1841
1427	1930
1427	2048
1430	1652
1430	1811
1430	1812
1430	1813
1431	1432
1431	1433
1431	1462
1431	1533
1431	1534
1431	1539
1431	1554
1431	1704
1431	1839
1431	1972
1431	2033
1431	2034
1432	1433
1433	1853
1433	2027
1434	1435
1435	1441
1435	1600
1436	1437
1436	1472
1436	1473
1436	1988
1437	1472
1437	1473
1437	1488
1437	1624
1437	1880
1437	1988
1439	1440
1439	1486
1439	1576
1439	1642
1441	1465
1441	1483
1441	1581
1441	1630
1441	1708
1441	1746
1441	1747
1441	1760
1441	1761
1441	1762
1441	1791
1441	1810
1441	1868
1441	1878
1441	1891
1441	1909
1441	1915
1441	1995
1441	1996
1441	2011
1442	1443
1443	1794
1443	1949
1444	1445
1445	1452
1445	1675
1445	2050
1446	1447
1446	1481
1446	1483
1446	1508
1446	1601
1446	1624
1446	1643
1446	1644
1447	1601
1447	1804
1450	1565
1450	1676
1450	1923
1451	1466
1451	1467
1451	1499
1451	1645
1451	1668
1451	1818
1451	1819
1451	1836
1451	1837
1451	1871
1451	1872
1454	1455
1455	1554
1455	1632
1455	1633
1455	1759
1455	1875
1455	1982
1455	1983
1455	1993
1455	1994
1455	1997
1455	1998
1455	2038
1457	1458
1457	1857
1457	1978
1458	1677
1458	1678
1458	1679
1458	1756
1458	1857
1458	1978
1458	2052
1459	1460
1459	1461
1459	1462
1459	1463
1459	1717
1460	1461
1460	1462
1460	1463
1460	1614
1461	1462
1461	1463
1462	1463
1462	1539
1462	1690
1462	1717
1462	1851
1462	1938
1462	1939
1463	1539
1463	1657
1463	1658
1463	1690
1463	1717
1463	1938
1463	1939
1464	1661
1464	1672
1464	1723
1464	1771
1464	1910
1464	1948
1464	1966
1464	1967
1464	2041
1464	2056
1464	2072
1465	1511
1465	1564
1465	1565
1465	1566
1465	1567
1465	1568
1465	1569
1465	1570
1465	1870
1465	1911
1465	1929
1466	1467
1466	1563
1467	1590
1467	1963
1468	1469
1468	1496
1468	1497
1468	1503
1468	1557
1468	1558
1468	1604
1468	1642
1468	1689
1471	1472
1471	1473
1472	1473
1472	1500
1472	1501
1472	1506
1472	1653
1472	1688
1472	1729
1472	1779
1472	1798
1472	1835
1472	1876
1472	1971
1472	1976
1472	2019
1472	2040
1472	2044
1472	2049
1472	2062
1473	1500
1473	1501
1473	1653
1473	1688
1473	1729
1473	1779
1473	1798
1473	1876
1473	1971
1473	1976
1473	2019
1473	2044
1473	2049
1473	2062
1475	1476
1476	1542
1476	1560
1476	1732
1477	1478
1477	1479
1477	1586
1478	1479
1478	1539
1478	1586
1478	1989
1478	2024
1480	1481
1481	1483
1481	1593
1481	1624
1482	1483
1483	1624
1483	1746
1483	1747
1483	1944
1485	1486
1485	1526
1485	1563
1485	1745
1486	1563
1487	1892
1488	1606
1489	1490
1491	1492
1492	1565
1492	1574
1492	1575
1492	1577
1492	1623
1492	1710
1492	1764
1492	1765
1492	1766
1492	1767
1492	1934
1492	1973
1492	2022
1492	2023
1493	1494
1493	1495
1494	1495
1496	1497
1496	1768
1500	1501
1502	1503
1502	1515
1502	1516
1502	1649
1503	1604
1504	1505
1504	1527
1504	1612
1505	1527
1507	1508
1508	1551
1508	1643
1508	1644
1508	1774
1508	1775
1508	1776
1508	1777
1508	1860
1509	1555
1509	1614
1509	1750
1509	1914
1509	1934
1509	1951
1509	1952
1509	1953
1509	1987
1510	1827
1511	1538
1511	1542
1511	1564
1511	1565
1511	1682
1511	1731
1511	1867
1511	2013
1511	2068
1511	2069
1512	1513
1513	1602
1513	1703
1513	1744
1513	2020
1513	2021
1513	2071
1514	1823
1515	1516
1515	1552
1516	1599
1516	1883
1517	1518
1517	1519
1518	1519
1518	1681
1519	1681
1519	1782
1519	1783
1519	1807
1519	2073
1519	2074
1521	1522
1523	2046
1523	2047
1524	1525
1525	1984
1528	1529
1528	1563
1528	1628
1528	1843
1528	1990
1529	1628
1529	2029
1531	1532
1532	1793
1532	1838
1532	1968
1533	1534
1533	1563
1536	1866
1537	1538
1538	1663
1538	1832
1538	1919
1538	1933
1539	1690
1541	1542
1541	1543
1542	1543
1542	1732
1542	1977
1542	2068
1542	2069
1544	1545
1546	1999
1547	1548
1549	1550
1549	1565
1551	1552
1551	1774
1551	1775
1551	1776
1551	1777
1552	1770
1553	1975
1554	1689
1554	1839
1554	1875
1554	1972
1554	1982
1554	1983
1555	1556
1555	1750
1555	1914
1555	1934
1555	1951
1555	1952
1555	1953
1556	1928
1557	1558
1560	1561
1560	1593
1560	1713
1560	1724
1561	1713
1561	1954
1561	2042
1563	1719
1563	1721
1563	1724
1563	1757
1563	1808
1563	1852
1563	1853
1563	1916
1563	1935
1564	1565
1565	1585
1565	1676
1565	1693
1565	1710
1565	1726
1565	1749
1565	1793
1565	1840
1565	1877
1565	1882
1565	1923
1566	1567
1566	1568
1566	1569
1566	1570
1567	1568
1567	1569
1567	1570
1568	1569
1568	1570
1569	1570
1572	1573
1574	1575
1575	1973
1577	1623
1578	1579
1578	1580
1579	1580
1579	1592
1579	1638
1579	1974
1582	1583
1582	1584
1582	1640
1582	1641
1582	1742
1582	1743
1582	1838
1582	1885
1583	1584
1583	2036
1587	1588
1590	1963
1594	1595
1594	1596
1595	1596
1596	1887
1602	1703
1603	1604
1604	1727
1607	1608
1607	1854
1608	1854
1608	1855
1610	1634
1610	1635
1613	1614
1614	1780
1614	1781
1614	1811
1614	1950
1614	1987
1615	1639
1616	1617
1620	1621
1623	1624
1623	1673
1623	1674
1624	1696
1624	1884
1624	2045
1625	1626
1625	1627
1626	1627
1627	1652
1632	1633
1633	1759
1634	1635
1634	1741
1634	1748
1636	1637
1640	1641
1640	1742
1640	1743
1640	1838
1641	1838
1643	1644
1644	1659
1644	1845
1644	1846
1644	2057
1646	1647
1648	1787
1648	1863
1651	1725
1651	1755
1652	1735
1652	1788
1652	1789
1652	2058
1654	1655
1655	1816
1657	1658
1661	1967
1662	1663
1663	1832
1663	1888
1663	1889
1663	1890
1663	1919
1663	1933
1663	2026
1663	2028
1664	1667
1664	1794
1664	2063
1673	1674
1673	1913
1676	1749
1677	1678
1677	1679
1678	1679
1682	1806
1683	1684
1690	1717
1690	1938
1690	1939
1693	1694
1699	1700
1699	1986
1705	1706
1715	1716
1715	2043
1717	1938
1717	1939
1720	1921
1720	2025
1722	1723
1723	1786
1723	1910
1723	1948
1723	1966
1723	2041
1723	2056
1723	2072
1724	1763
1724	1852
1724	1853
1726	1852
1726	1871
1728	1773
1734	1735
1735	1788
1735	1789
1735	1817
1735	1895
1740	1741
1741	1748
1742	1743
1746	1747
1748	1869
1749	1913
1750	1914
1750	1934
1750	1951
1750	1952
1750	1953
1751	1752
1751	1753
1752	1753
1755	1829
1755	1873
1755	1874
1755	1894
1760	1761
1760	1762
1761	1762
1764	1765
1764	1766
1764	1767
1765	1766
1765	1767
1766	1767
1774	1775
1774	1776
1774	1777
1775	1776
1775	1777
1776	1777
1780	1781
1782	1783
1782	1807
1788	1789
1792	2006
1792	2030
1793	1877
1793	1931
1794	1795
1794	1949
1794	2063
1798	2019
1799	1800
1802	1803
1811	1812
1811	1813
1812	1813
1818	1819
1818	2080
1818	2081
1818	2104
1818	2159
1821	1822
1823	1859
1828	1829
1829	1873
1829	1874
1829	1894
1829	1901
1829	1902
1831	1906
1831	1907
1836	1837
1838	1968
1839	1972
1840	1877
1845	1846
1852	1853
1853	2027
1854	1855
1861	1862
1861	2003
1861	2004
1865	1924
1866	1920
1867	2013
1870	1911
1871	1872
1873	1874
1873	1894
1874	1894
1878	2065
1888	1889
1888	1890
1888	2028
1889	1890
1889	2028
1890	2028
1891	1995
1891	1996
1891	2015
1899	1900
1901	1902
1903	1904
1906	1907
1908	1969
1908	1970
1919	1933
1921	2025
1934	1951
1934	1952
1934	1953
1934	2022
1934	2023
1936	1937
1938	1939
1942	1943
1947	2060
1947	2061
1948	2041
1948	2072
1951	1952
1951	1953
1952	1953
1956	1957
1956	1958
1957	1958
1959	1960
1959	1961
1959	1962
1960	1961
1960	1962
1961	1962
1969	1970
1982	1983
1993	1994
1995	1996
1997	1998
2000	2001
2003	2004
2008	2009
2020	2021
2022	2023
2031	2032
2033	2034
2041	2072
2044	2062
2046	2047
2054	2055
2060	2061
2064	2142
2068	2069
2073	2074
2075	2076
2075	2088
2075	2099
2075	2128
2075	2129
2076	2088
2076	2099
2076	2128
2076	2129
2077	2078
2079	2082
2079	2112
2079	2136
2080	2081
2080	2121
2080	2159
2081	2104
2081	2138
2081	2159
2083	2084
2083	2085
2083	2086
2084	2085
2084	2086
2085	2086
2087	2088
2087	2089
2088	2089
2088	2148
2090	2091
2090	2125
2091	2125
2092	2093
2092	2094
2092	2109
2092	2110
2092	2111
2092	2133
2092	2134
2092	2137
2092	2141
2092	2143
2092	2155
2092	2158
2093	2094
2095	2096
2097	2098
2099	2129
2100	2101
2100	2102
2100	2103
2101	2102
2101	2103
2101	2106
2101	2126
2102	2103
2107	2108
2109	2110
2109	2111
2109	2151
2109	2152
2109	2153
2110	2111
2111	2115
2111	2133
2111	2137
2111	2139
2111	2140
2111	2141
2111	2143
2111	2158
2116	2117
2118	2119
2118	2120
2118	2132
2119	2120
2120	2149
2120	2150
2122	2154
2128	2129
2130	2131
2133	2137
2139	2140
2144	2145
2146	2147
2151	2152
2151	2153
2152	2153
2156	2157
